(declare-fun temp2194_1 () (_ BitVec 64))
(declare-fun var267017 () (_ BitVec 64))
(declare-fun var267004 () (_ BitVec 64))
(declare-fun var201264 () (_ BitVec 64))
(declare-fun temp2194_2 () (_ BitVec 64))
(declare-fun temp2194_3 () (_ BitVec 64))
(declare-fun ARGNAME_input_NAMEEND_DIM () (_ BitVec 64))
(declare-fun var1578067 () (_ BitVec 64))
(declare-fun temp2194_4 () (_ BitVec 64))
(declare-fun temp2194_5 () (_ BitVec 64))
(declare-fun var2183793 () (_ BitVec 64))
(declare-fun temp2194_6 () (_ BitVec 64))
(declare-fun var2183794 () (_ BitVec 64))
(declare-fun temp2194_7 () (_ BitVec 64))
(declare-fun var2183801 () (_ BitVec 64))
(declare-fun temp2194_8 () (_ BitVec 64))
(declare-fun var2503485 () (_ BitVec 64))
(declare-fun temp2194_9 () (_ BitVec 64))
(declare-fun var2569021 () (_ BitVec 64))
(declare-fun temp2194_10 () (_ BitVec 64))
(declare-fun ARGNAME_keepdim_NAMEEND () (_ BitVec 64))
(declare-fun temp2194_11 () (_ BitVec 64))
(declare-fun var3289917 () (_ BitVec 64))
(declare-fun temp2194_12 () (_ BitVec 64))
(declare-fun var3355453 () (_ BitVec 64))
(declare-fun temp2194_13 () (_ BitVec 64))
(declare-fun var3486525 () (_ BitVec 64))
(declare-fun temp2194_15 () (_ BitVec 64))
(declare-fun temp2194_14 () (_ BitVec 64))
(declare-fun temp2194_16 () (_ BitVec 64))
(declare-fun var3552061 () (_ BitVec 64))
(assert (= temp2194_1 #x0000000000000000))
(assert (= var267017 temp2194_1))
(assert (= var267004 var267017))
(assert (= var201264 var267004))
(assert (= temp2194_2 #x0000000000000000))
(assert (= var201264 temp2194_2))
(assert (= temp2194_3 #x0000000000000002))
(assert (= var1578067
   (ite (bvslt ARGNAME_input_NAMEEND_DIM temp2194_3)
        #x0000000000000001
        #x0000000000000000)))
(assert (= temp2194_4 #x0000000000000000))
(assert (= var1578067 temp2194_4))
(assert (= temp2194_5 #x0000000000000001))
(assert (= var2183793
   (ite (bvsgt ARGNAME_input_NAMEEND_DIM temp2194_5)
        #x0000000000000001
        #x0000000000000000)))
(assert (= temp2194_6 #x0000000000000001))
(assert (= var2183794
   (ite (= var2183793 #x0000000000000001) ARGNAME_input_NAMEEND_DIM temp2194_6)))
(assert (= temp2194_7 #xffffffffffffffff))
(assert (= var2183801 (bvadd var2183794 temp2194_7)))
(assert (= temp2194_8 #x0000000000000000))
(assert (= var2503485 temp2194_8))
(assert (= temp2194_9 #x0000000000000001))
(assert (= var2569021 temp2194_9))
(assert (= temp2194_10 #x0000000000000000))
(assert (= ARGNAME_keepdim_NAMEEND temp2194_10))
(assert (= temp2194_11 #x0000000000000000))
(assert (= var3289917 temp2194_11))
(assert (= temp2194_12 #x0000000000000001))
(assert (= var3355453 temp2194_12))
(assert (= temp2194_13 #x0000000000000000))
(assert (= var3486525 temp2194_13))
(assert (= temp2194_15 #x0000000000000001))
(assert (= temp2194_14 temp2194_15))
(assert (= temp2194_16 #x0000000000000001))
(assert (= var3552061 temp2194_16))
(model-add temp2194_1 () (_ BitVec 64) #x0000000000000000)
(model-add var267017 () (_ BitVec 64) #x0000000000000000)
(model-add var267004 () (_ BitVec 64) #x0000000000000000)
(model-add var201264 () (_ BitVec 64) #x0000000000000000)
(model-add temp2194_2 () (_ BitVec 64) #x0000000000000000)






